NAME: random_10_0
TYPE: TSP
COMMENT: random_10_0
DIMENSION: 10
EDGE_WEIGHT_TYPE: EUC_2D
NODE_COORD_SECTION
1 284 440
2 239 294
3 316 493
4 144 259
5 278 79
6 214 338
7 1 312
8 410 434
9 90 297
10 228 20
